

******************************************************************************
This program contains Ipopt, a library for large-scale nonlinear optimization.
 Ipopt is released as open source code under the Eclipse Public License (EPL).
         For more information visit https://github.com/coin-or/Ipopt
******************************************************************************

This is Ipopt version 3.14.11, running with linear solver MUMPS 5.5.1.

Number of nonzeros in equality constraint Jacobian...:        0
Number of nonzeros in inequality constraint Jacobian.:        0
Number of nonzeros in Lagrangian Hessian.............:       45

Total number of variables............................:        9
                     variables with only lower bounds:        2
                variables with lower and upper bounds:        0
                     variables with only upper bounds:        0
Total number of equality constraints.................:        0
Total number of inequality constraints...............:        0
        inequality constraints with only lower bounds:        0
   inequality constraints with lower and upper bounds:        0
        inequality constraints with only upper bounds:        0

iter    objective    inf_pr   inf_du lg(mu)  ||d||  lg(rg) alpha_du alpha_pr  ls
   0  1.1980108e+05 0.00e+00 1.00e+02  -1.0 0.00e+00    -  0.00e+00 0.00e+00   0
   1  2.9958065e-02 0.00e+00 1.40e-01  -1.0 2.43e+02    -  9.04e-01 1.00e+00f  1
   2  3.2343190e-02 0.00e+00 6.61e-04  -2.5 2.79e-01    -  9.97e-01 1.00e+00f  1
   3  2.8550073e-02 0.00e+00 1.41e-06  -5.7 1.10e-01    -  9.98e-01 1.00e+00f  1
   4  2.8550059e-02 0.00e+00 2.54e-08  -8.6 2.54e-04  -4.0 1.00e+00 1.00e+00f  1
   5  2.8550019e-02 0.00e+00 2.39e-08  -8.6 7.30e-04  -4.5 1.00e+00 1.00e+00f  1
   6  2.8549903e-02 0.00e+00 3.52e-08  -9.0 2.21e-03  -5.0 1.00e+00 1.00e+00f  1
   7  2.8549564e-02 0.00e+00 2.58e-07  -9.0 6.36e-03  -5.4 1.00e+00 1.00e+00f  1
   8  2.8548523e-02 0.00e+00 1.92e-06  -9.0 1.91e-02  -5.9 1.00e+00 1.00e+00f  1
   9  2.8545716e-02 0.00e+00 1.35e-05  -9.0 5.61e-02  -6.4 1.00e+00 1.00e+00f  1
iter    objective    inf_pr   inf_du lg(mu)  ||d||  lg(rg) alpha_du alpha_pr  ls
  10  2.8543717e-02 0.00e+00 5.36e-06  -9.0 2.15e-02  -6.0 1.00e+00 1.00e+00f  1
  11  2.8541056e-02 0.00e+00 3.62e-06  -9.0 9.86e-02  -6.4 1.00e+00 5.00e-01f  2
  12  2.8539462e-02 0.00e+00 9.87e-05  -9.0 6.75e-02  -6.0 1.00e+00 1.00e+00f  1
  13  2.8532725e-02 0.00e+00 3.38e-05  -9.0 6.08e-02  -5.6 1.00e+00 5.00e-01f  2
  14  2.8527290e-02 0.00e+00 7.48e-06  -9.0 4.24e-02  -6.1 1.00e+00 1.00e+00f  1
  15  2.8524313e-02 0.00e+00 4.16e-06  -9.0 1.76e-02  -5.6 1.00e+00 1.00e+00f  1
  16  2.8516935e-02 0.00e+00 3.03e-05  -9.0 6.97e-02  -6.1 1.00e+00 1.00e+00f  1
  17  2.8510081e-02 0.00e+00 9.49e-05  -9.0 6.33e-02  -5.7 1.00e+00 1.00e+00f  1
  18  2.8501724e-02 0.00e+00 1.47e-06  -9.0 1.69e-02  -5.3 1.00e+00 1.00e+00f  1
  19  2.8492729e-02 0.00e+00 2.50e-05  -9.0 3.59e-02  -5.7 1.00e+00 1.00e+00f  1
iter    objective    inf_pr   inf_du lg(mu)  ||d||  lg(rg) alpha_du alpha_pr  ls
  20  2.8473856e-02 0.00e+00 9.05e-05  -9.0 1.51e-01  -6.2 1.00e+00 5.00e-01f  2
  21  2.8463681e-02 0.00e+00 1.41e-04  -9.0 9.33e-01  -5.8 1.00e+00 5.15e-02f  5
  22  2.8453811e-02 0.00e+00 9.62e-05  -9.0 1.93e-01  -6.3 1.00e+00 5.00e-01f  2
  23  2.8415552e-02 0.00e+00 1.11e-05  -9.0 2.09e-02  -4.9 1.00e+00 1.00e+00f  1
  24  2.8397655e-02 0.00e+00 2.50e-05  -9.0 2.99e-02  -5.4 1.00e+00 1.00e+00f  1
  25  2.8354209e-02 0.00e+00 3.98e-04  -9.0 1.16e-01  -5.9 1.00e+00 1.00e+00f  1
  26  2.8289590e-02 0.00e+00 1.77e-05  -9.0 9.80e-02  -5.5 1.00e+00 1.00e+00f  1
  27  2.8278384e-02 0.00e+00 2.48e-04  -9.0 3.56e-01  -5.0 1.00e+00 2.50e-01f  3
  28  2.8187026e-02 0.00e+00 5.09e-07  -9.0 1.36e-02  -4.6 1.00e+00 1.00e+00f  1
  29  2.8137799e-02 0.00e+00 5.05e-05  -9.0 3.63e-02  -5.1 1.00e+00 1.00e+00f  1
iter    objective    inf_pr   inf_du lg(mu)  ||d||  lg(rg) alpha_du alpha_pr  ls
  30  2.8002590e-02 0.00e+00 1.48e-04  -9.0 1.21e-01  -5.6 1.00e+00 1.00e+00f  1
  31  2.7771782e-02 0.00e+00 7.56e-04  -9.0 4.24e-01  -6.0 1.00e+00 1.00e+00f  1
  32  2.6605291e-02 0.00e+00 1.89e-04  -9.0 7.25e-01  -6.5 1.00e+00 1.00e+00f  1
  33  2.6182553e-02 0.00e+00 1.84e-04  -9.0 8.32e-01  -6.1 1.00e+00 5.00e-01f  2
  34  2.5969099e-02 0.00e+00 5.58e-06  -9.0 1.94e-02  -3.9 1.00e+00 1.00e+00f  1
  35  2.5776025e-02 0.00e+00 4.30e-05  -9.0 3.75e-02  -4.3 1.00e+00 1.00e+00f  1
  36  2.5476884e-02 0.00e+00 1.59e-04  -9.0 6.87e-02  -4.8 1.00e+00 1.00e+00f  1
  37  2.4880043e-02 0.00e+00 5.36e-05  -9.0 8.31e-02  -5.3 1.00e+00 1.00e+00f  1
  38  2.4522539e-02 0.00e+00 1.85e-04  -9.0 2.91e-01  -5.8 1.00e+00 2.50e-01f  3
  39  2.3427539e-02 0.00e+00 9.03e-05  -9.0 7.58e-01  -6.2 1.00e+00 1.00e+00f  1
iter    objective    inf_pr   inf_du lg(mu)  ||d||  lg(rg) alpha_du alpha_pr  ls
  40  2.2874252e-02 0.00e+00 1.09e-04  -9.0 4.02e-02  -4.0 1.00e+00 1.00e+00f  1
  41  1.9259596e-02 0.00e+00 9.89e-04  -9.0 3.75e+01    -  1.00e+00 1.60e-01f  3
  42  1.7595528e-02 0.00e+00 2.00e-04  -9.0 3.08e-02  -3.6 1.00e+00 1.00e+00f  1
  43  1.0981058e-02 0.00e+00 5.13e-04  -9.0 1.57e+01    -  1.00e+00 1.00e+00f  1
  44  1.0484386e-02 0.00e+00 2.98e-05  -9.0 1.81e-02  -4.1 1.00e+00 1.00e+00f  1
  45  1.0366896e-02 0.00e+00 1.19e-04  -9.0 5.87e+01    -  1.07e-01 1.56e-02f  7
  46  1.0247092e-02 0.00e+00 1.34e-04  -9.0 5.92e-01    -  1.00e+00 1.00e+00f  1
  47  1.0152511e-02 0.00e+00 7.47e-05  -9.0 6.35e-01    -  1.00e+00 1.00e+00f  1
  48  1.0088569e-02 0.00e+00 1.42e-04  -9.0 8.99e-01    -  1.00e+00 1.00e+00f  1
  49  1.0013592e-02 0.00e+00 3.50e-05  -9.0 4.33e-01    -  1.00e+00 1.00e+00f  1
iter    objective    inf_pr   inf_du lg(mu)  ||d||  lg(rg) alpha_du alpha_pr  ls
  50  9.9748895e-03 0.00e+00 8.38e-05  -9.0 1.19e+00    -  1.00e+00 5.00e-01f  2
  51  9.9279844e-03 0.00e+00 5.96e-05  -9.0 5.43e-01    -  1.00e+00 1.00e+00f  1
  52  9.8926458e-03 0.00e+00 8.45e-05  -9.0 6.47e-01    -  1.00e+00 1.00e+00f  1
  53  9.8593397e-03 0.00e+00 3.72e-05  -9.0 4.20e-01    -  1.00e+00 1.00e+00f  1
  54  9.8428202e-03 0.00e+00 1.12e-04  -9.0 7.21e-01    -  1.00e+00 1.00e+00f  1
  55  9.8135789e-03 0.00e+00 1.24e-05  -9.0 2.39e-01    -  1.00e+00 1.00e+00f  1
  56  9.8024317e-03 0.00e+00 7.32e-05  -9.0 1.08e+00    -  1.00e+00 5.00e-01f  2
  57  9.7866798e-03 0.00e+00 1.64e-05  -9.0 2.55e-01    -  1.00e+00 1.00e+00f  1
  58  9.7791638e-03 0.00e+00 3.97e-05  -9.0 7.25e-01    -  1.00e+00 5.00e-01f  2
  59  9.7706372e-03 0.00e+00 2.76e-05  -9.0 3.32e-01    -  1.00e+00 1.00e+00f  1
iter    objective    inf_pr   inf_du lg(mu)  ||d||  lg(rg) alpha_du alpha_pr  ls
  60  9.7647222e-03 0.00e+00 3.46e-05  -9.0 3.70e-01    -  1.00e+00 1.00e+00f  1
  61  9.7599280e-03 0.00e+00 1.57e-05  -9.0 2.45e-01    -  1.00e+00 1.00e+00f  1
  62  9.7573728e-03 0.00e+00 3.38e-05  -9.0 3.60e-01    -  1.00e+00 1.00e+00f  1
  63  9.7547600e-03 0.00e+00 5.44e-06  -9.0 1.41e-01    -  1.00e+00 1.00e+00f  1
  64  9.7545856e-03 0.00e+00 3.56e-05  -9.0 3.64e-01    -  1.00e+00 1.00e+00f  1
  65  9.7527872e-03 0.00e+00 6.90e-07  -9.0 4.84e-02    -  1.00e+00 1.00e+00f  1
  66  9.7527598e-03 0.00e+00 1.44e-05  -9.0 2.28e-01    -  1.00e+00 1.00e+00f  1
  67  9.7524926e-03 0.00e+00 2.73e-08  -9.0 9.24e-03    -  1.00e+00 1.00e+00f  1
  68  9.7524954e-03 0.00e+00 1.44e-07  -9.0 2.25e-02    -  1.00e+00 1.00e+00f  1
  69  9.7524954e-03 0.00e+00 9.56e-12  -9.0 1.73e-04    -  1.00e+00 1.00e+00f  1

Number of Iterations....: 69

                                   (scaled)                 (unscaled)
Objective...............:   6.5826485864299634e-06    9.7524953977039374e-03
Dual infeasibility......:   9.5628574094457229e-12    1.4167811276873584e-08
Constraint violation....:   0.0000000000000000e+00    0.0000000000000000e+00
Variable bound violation:   0.0000000000000000e+00    0.0000000000000000e+00
Complementarity.........:   9.0909090902300429e-10    1.3468598224456756e-06
Overall NLP error.......:   9.0909090902300429e-10    1.3468598224456756e-06


Number of objective function evaluations             = 146
Number of objective gradient evaluations             = 70
Number of equality constraint evaluations            = 0
Number of inequality constraint evaluations          = 0
Number of equality constraint Jacobian evaluations   = 0
Number of inequality constraint Jacobian evaluations = 0
Number of Lagrangian Hessian evaluations             = 69
Total seconds in IPOPT                               = 0.048

EXIT: Optimal Solution Found.
 
Ipopt 3.14.11: Optimal Solution Found
